param N := 5;
param M := 20;
param K := 10;
param x_max := 5;
param y_max := 20;
param a := 1.0;
param b := 1.0;
param T := 250;
param i_start := 1 4 2 4 3 4 4 4 5 5 6 1 7 2 8 3 9 3 10 4;
param j_start := 1 1 2 1 3 1 4 1 5 2 6 1 7 1 8 1 9 3 10 2;
param i_end := 1 4 2 3 3 1 4 5 5 3 6 3 7 4 8 2 9 2 10 2;
param j_end := 1 15 2 15 3 15 4 15 5 15 6 15 7 15 8 15 9 15 10 14;